;; produced by z3_gnatprove.drv ;;
(set-info :smt-lib-version 2.5)
(set-info :source |VC generated by SPARK 2014|)
(set-info :category industrial)
(set-info :status unknown)
;;; generated by SMT-LIB2 driver
;;; SMT-LIB2 driver: bit-vectors, common part
;;; SMT-LIB2: integer arithmetic
(declare-sort string 0)

(declare-datatypes () ((tuple0 (Tuple0))))
(declare-sort us_private 0)

(declare-fun private__bool_eq (us_private us_private) Bool)

(declare-const us_null_ext__ us_private)

(declare-sort us_type_of_heap 0)

(declare-datatypes ()
((us_type_of_heap__ref
 (us_type_of_heap__refqtmk (us_type_of_heap__content us_type_of_heap)))))
(declare-sort us_image 0)

(declare-datatypes () ((int__ref (int__refqtmk (int__content Int)))))
(declare-datatypes () ((bool__ref (bool__refqtmk (bool__content Bool)))))
(declare-datatypes ()
((us_fixed__ref (us_fixed__refqtmk (us_fixed__content Int)))))
(declare-datatypes () ((real__ref (real__refqtmk (real__content Real)))))
(declare-datatypes ()
((us_private__ref (us_private__refqtmk (us_private__content us_private)))))
(define-fun int__ref___projection ((a int__ref)) Int (int__content a))

(define-fun us_fixed__ref___projection ((a us_fixed__ref)) Int (us_fixed__content
                                                               a))

(define-fun bool__ref___projection ((a bool__ref)) Bool (bool__content a))

(define-fun real__ref___projection ((a real__ref)) Real (real__content a))

(define-fun us_private__ref___projection ((a us_private__ref)) us_private 
  (us_private__content a))

(declare-sort my_integer 0)

(declare-fun my_integerqtint (my_integer) Int)

;; my_integer'axiom
  (assert
  (forall ((i my_integer))
  (and (<= (- 2147483648) (my_integerqtint i))
  (<= (my_integerqtint i) 2147483647))))

(define-fun in_range ((x Int)) Bool (and (<= (- 2147483648) x)
                                    (<= x 2147483647)))

(declare-fun attr__ATTRIBUTE_IMAGE (Int) us_image)

(declare-fun attr__ATTRIBUTE_VALUE__pre_check (us_image) Bool)

(declare-fun attr__ATTRIBUTE_VALUE (us_image) Int)

(declare-fun user_eq (my_integer my_integer) Bool)

(declare-const dummy my_integer)

(declare-datatypes ()
((my_integer__ref (my_integer__refqtmk (my_integer__content my_integer)))))
(define-fun my_integer__ref_my_integer__content__projection ((a my_integer__ref)) my_integer 
  (my_integer__content a))

(declare-const attr__ATTRIBUTE_ADDRESS Int)

(define-fun dynamic_invariant ((temp___expr_179 Int)
  (temp___is_init_175 Bool) (temp___skip_constant_176 Bool)
  (temp___do_toplevel_177 Bool)
  (temp___do_typ_inv_178 Bool)) Bool (=>
                                     (or (= temp___is_init_175 true)
                                     (<= (- 2147483648) 2147483647))
                                     (in_range temp___expr_179)))

(define-fun to_rep ((x my_integer)) Int (my_integerqtint x))

(declare-fun of_rep (Int) my_integer)

;; inversion_axiom
  (assert
  (forall ((x my_integer))
  (! (= (of_rep (to_rep x)) x) :pattern ((to_rep x)) )))

;; range_axiom
  (assert
  (forall ((x my_integer)) (! (in_range (to_rep x)) :pattern ((to_rep x)) )))

;; coerce_axiom
  (assert
  (forall ((x Int))
  (! (=> (in_range x) (= (to_rep (of_rep x)) x)) :pattern ((to_rep
                                                           (of_rep x))) )))

(define-fun in_range1 ((x Int)) Bool (or (= x 0) (= x 1)))

(declare-fun attr__ATTRIBUTE_IMAGE1 (Bool) us_image)

(declare-fun attr__ATTRIBUTE_VALUE__pre_check1 (us_image) Bool)

(declare-fun attr__ATTRIBUTE_VALUE1 (us_image) Bool)

(declare-datatypes ()
((us_rep
 (us_repqtmk
 (rec__types__int_ptr__is_null_pointer Bool)(rec__types__int_ptr__pointer_address Int)(rec__types__int_ptr__pointer_value my_integer)))))
(define-fun us_rep_rec__types__int_ptr__is_null_pointer__projection ((a us_rep)) Bool 
  (rec__types__int_ptr__is_null_pointer a))

(define-fun us_rep_rec__types__int_ptr__pointer_address__projection ((a us_rep)) Int 
  (rec__types__int_ptr__pointer_address a))

(define-fun us_rep_rec__types__int_ptr__pointer_value__projection ((a us_rep)) my_integer 
  (rec__types__int_ptr__pointer_value a))

(declare-datatypes ()
((us_rep__ref (us_rep__refqtmk (us_rep__content us_rep)))))
(define-fun us_rep__ref___rep__content__projection ((a us_rep__ref)) us_rep 
  (us_rep__content a))

(define-fun bool_eq ((a us_rep)
  (b us_rep)) Bool (ite (and
                        (= (rec__types__int_ptr__is_null_pointer a) (rec__types__int_ptr__is_null_pointer
                                                                    b))
                        (=>
                        (not
                        (= (rec__types__int_ptr__is_null_pointer a) true))
                        (and
                        (= (rec__types__int_ptr__pointer_address a) (rec__types__int_ptr__pointer_address
                                                                    b))
                        (= (rec__types__int_ptr__pointer_value a) (rec__types__int_ptr__pointer_value
                                                                  b)))))
                   true false))

(define-fun rec__types__int_ptr__pointer_value__pred ((a us_rep)) Bool 
  (not (= (rec__types__int_ptr__is_null_pointer a) true)))

(declare-const us_null_pointer us_rep)

;; __null_pointer__def_axiom
  (assert (= (rec__types__int_ptr__is_null_pointer us_null_pointer) true))

(declare-const dummy1 us_rep)

(declare-datatypes ()
((int_ptr__ref (int_ptr__refqtmk (int_ptr__content us_rep)))))
(define-fun int_ptr__ref_int_ptr__content__projection ((a int_ptr__ref)) us_rep 
  (int_ptr__content a))

(define-fun default_initial_assumption ((temp___expr_187 us_rep)
  (temp___skip_top_level_188 Bool)) Bool (= (rec__types__int_ptr__is_null_pointer
                                            temp___expr_187) true))

;; Ensures
  (assert (in_range (- 12345)))

(declare-const us_next_pointer_address Int)

(declare-const temp___alloc_190 us_rep)

;; H
  (assert
  (not (= (rec__types__int_ptr__is_null_pointer temp___alloc_190) true)))

;; H
  (assert
  (= (rec__types__int_ptr__pointer_address temp___alloc_190) us_next_pointer_address))

(declare-const usf my_integer)

;; Ensures
  (assert (= (to_rep usf) (- 12345)))

;; Assume
  (assert (= (rec__types__int_ptr__pointer_value temp___alloc_190) usf))

(declare-const x__pointer_value my_integer)

;; H
  (assert
  (= x__pointer_value (rec__types__int_ptr__pointer_value temp___alloc_190)))

(declare-const x__pointer_address Int)

;; H
  (assert
  (= x__pointer_address (rec__types__int_ptr__pointer_address
                        temp___alloc_190)))

(declare-const x__is_null_pointer Bool)

;; H
  (assert
  (= x__is_null_pointer (rec__types__int_ptr__is_null_pointer
                        temp___alloc_190)))

;; Assume
  (assert true)

(assert
;; defqtvc
 ;; File "alloc.adb", line 3, characters 0-0
  (not (= (to_rep x__pointer_value) (- 12345))))
(check-sat)
